\ENCODING=ISO-8859-1
\Problem name: ilog.cplex

Minimize
 obj1: 96545 x1 + 106996 x2 + 99880 x3 + 90324 x4 + 105236 x5 + 106219 x6
       + 105466 x7 + 101555 x8 + 103890 x9 + 95245 x10 + 98859 x11 + 98851 x12
       + 100836 x13 + 109970 x14 + 93619 x15 + 108393 x16 + 105260 x17
       + 94173 x18 + 98107 x19 + 105049 x20 + 100347 x21 + 91772 x22
       + 102777 x23 + 100107 x24 + 99066 x25 + 91999 x26 + 90427 x27
       + 102568 x28 + 96822 x29 + 109097 x30 + 107132 x31 + 90725 x32
       + 96129 x33 + 108601 x34 + 102897 x35 + 104085 x36 + 105081 x37
       + 93385 x38 + 97904 x39 + 99607 x40 + 103564 x41 + 94408 x42 + 92797 x43
       + 90795 x44 + 109009 x45 + 93429 x46 + 99564 x47 + 103322 x48
       + 96929 x49 + 97982 x50 + 103360 x51 + 96713 x52 + 100584 x53
       + 92482 x54 + 94986 x55 + 97999 x56 + 108800 x57 + 103604 x58
       + 98808 x59 + 90331 x60 + 97205 x61 + 107012 x62 + 105203 x63
       + 103116 x64 + 101245 x65 + 101843 x66 + 107221 x67 + 104617 x68
       + 95448 x69 + 100741 x70 + 107953 x71 + 91959 x72 + 104298 x73
       + 100288 x74 + 99319 x75 + 101956 x76 + 92371 x77 + 97651 x78
       + 93862 x79 + 92300 x80 + 98842 x81 + 105239 x82 + 104761 x83
       + 93355 x84 + 97715 x85 + 100291 x86 + 92687 x87 + 109069 x88
       + 105681 x89 + 93896 x90 + 103905 x91 + 100090 x92 + 102141 x93
       + 94964 x94 + 104500 x95 + 103382 x96 + 109283 x97 + 101182 x98
       + 106730 x99 + 99574 x100 + 103974 x101 + 91253 x102 + 105233 x103
       + 91766 x104 + 97830 x105 + 100500 x106 + 93190 x107 + 107684 x108
       + 106957 x109 + 95421 x110 + 91534 x111 + 100824 x112 + 98694 x113
       + 101821 x114 + 97899 x115 + 105636 x116 + 109091 x117 + 105878 x118
       + 106252 x119 + 96809 x120 + 93369 x121 + 107636 x122 + 103926 x123
       + 90896 x124 + 94559 x125 + 109228 x126 + 93830 x127 + 108056 x128
       + 96389 x129 + 90354 x130 + 97979 x131 + 96376 x132 + 95231 x133
       + 91312 x134 + 102072 x135 + 90708 x136 + 98015 x137 + 108075 x138
       + 104470 x139 + 108373 x140 + 107308 x141 + 100689 x142 + 106280 x143
       + 97085 x144 + 94002 x145 + 108654 x146 + 93634 x147 + 108650 x148
       + 90314 x149 + 92998 x150 + 107009 x151 + 105625 x152 + 91471 x153
       + 97411 x154 + 93379 x155 + 98649 x156 + 105708 x157 + 94125 x158
       + 103578 x159 + 93250 x160 + 99118 x161 + 94120 x162 + 109459 x163
       + 96680 x164 + 104391 x165 + 95824 x166 + 93270 x167 + 97673 x168
       + 100641 x169 + 101631 x170 + 105122 x171 + 105055 x172 + 105289 x173
       + 107361 x174 + 93496 x175 + 94679 x176 + 108345 x177 + 106207 x178
       + 108469 x179 + 108476 x180 + 94204 x181 + 98881 x182 + 94640 x183
       + 100708 x184 + 90014 x185 + 99261 x186 + 92488 x187 + 100267 x188
       + 104048 x189 + 98065 x190 + 98241 x191 + 103506 x192 + 96008 x193
       + 96726 x194 + 108310 x195 + 92438 x196 + 95038 x197 + 106730 x198
       + 98774 x199 + 108659 x200 + 106201 x201 + 101140 x202 + 105315 x203
       + 92768 x204 + 106479 x205 + 104579 x206 + 96408 x207 + 98253 x208
       + 90459 x209 + 99723 x210 + 97275 x211 + 105004 x212 + 95714 x213
       + 93964 x214 + 104777 x215 + 108559 x216 + 98390 x217 + 91197 x218
       + 96756 x219 + 97774 x220 + 100630 x221 + 90577 x222 + 103210 x223
       + 95822 x224 + 93183 x225 + 106592 x226 + 91286 x227 + 107232 x228
       + 108928 x229 + 92979 x230 + 101224 x231 + 107184 x232 + 106021 x233
       + 96741 x234 + 96189 x235 + 108299 x236 + 92994 x237 + 107937 x238
       + 95356 x239 + 104922 x240 + 105199 x241 + 94188 x242 + 93510 x243
       + 103396 x244 + 97208 x245 + 96459 x246 + 96220 x247 + 96752 x248
       + 97002 x249 + 105398 x250 + 106850 x251 + 106124 x252 + 93606 x253
       + 95382 x254 + 91642 x255 + 97547 x256 + 98866 x257 + 105662 x258
       + 108662 x259 + 91612 x260 + 108488 x261 + 98959 x262 + 97161 x263
       + 92607 x264 + 104687 x265 + 105709 x266 + 101276 x267 + 102167 x268
       + 100594 x269 + 106879 x270 + 91411 x271 + 92763 x272 + 101863 x273
       + 108235 x274 + 102288 x275 + 109014 x276 + 101924 x277 + 109337 x278
       + 97931 x279 + 98141 x280 + 93867 x281 + 91740 x282 + 100726 x283
       + 104770 x284 + 94174 x285 + 102530 x286 + 104254 x287 + 99875 x288
       + 91343 x289 + 91768 x290 + 107682 x291 + 108804 x292 + 95907 x293
       + 95338 x294 + 103329 x295 + 99136 x296 + 97414 x297 + 98359 x298
       + 98375 x299 + 101256 x300 + 217634 x301 + 214282 x302 + 198331 x303
       + 199343 x304 + 191350 x305 + 204704 x306 + 204178 x307 + 185057 x308
       + 180461 x309 + 183941 x310 + 209025 x311 + 214503 x312 + 181369 x313
       + 203908 x314 + 205867 x315 + 187697 x316 + 186246 x317 + 199291 x318
       + 201224 x319 + 203534 x320 + 192875 x321 + 192671 x322 + 196378 x323
       + 186259 x324 + 208518 x325 + 198051 x326 + 203324 x327 + 204297 x328
       + 219596 x329 + 197886 x330 + 187235 x331 + 216394 x332 + 219913 x333
       + 201875 x334 + 195083 x335 + 205079 x336 + 214919 x337 + 182701 x338
       + 181649 x339 + 216241 x340 + 207947 x341 + 184557 x342 + 219535 x343
       + 196145 x344 + 206600 x345 + 194724 x346 + 198855 x347 + 183517 x348
       + 183463 x349 + 216612 x350 + 185174 x351 + 214355 x352 + 204989 x353
       + 184608 x354 + 190829 x355 + 190907 x356 + 205946 x357 + 196725 x358
       + 185138 x359 + 256485 x360
Subject To
 c1:   - x3 + x6 - x7 + x10 + x12 - x14 - x15 + x30 - x36 - x40 - x49 + x59
        = 0
 c2:   - x63 + x66 - x67 + x70 + x72 - x74 - x75 + x90 - x96 - x100 - x109
       + x119  = 0
 c3:   - x123 + x126 - x127 + x130 + x132 - x134 - x135 + x150 - x156 - x160
       - x169 + x179  = 0
 c4:   - x183 + x186 - x187 + x190 + x192 - x194 - x195 + x210 - x216 - x220
       - x229 + x239  = 0
 c5:   - x243 + x246 - x247 + x250 + x252 - x254 - x255 + x270 - x276 - x280
       - x289 + x299  = 0
 c6:   - x1 - x6 - x13 + x17 + x19 + x20 + x28 + x44 + x47 + x48 - x51  = 0
 c7:   - x61 - x66 - x73 + x77 + x79 + x80 + x88 + x104 + x107 + x108 - x111
        = 0
 c8:   - x121 - x126 - x133 + x137 + x139 + x140 + x148 + x164 + x167 + x168
       - x171  = 0
 c9:   - x181 - x186 - x193 + x197 + x199 + x200 + x208 + x224 + x227 + x228
       - x231  = 0
 c10:  - x241 - x246 - x253 + x257 + x259 + x260 + x268 + x284 + x287 + x288
       - x291  = 0
 c11:  - x24 + x26 + x29 + x34 - x42 - x47 + x51 - x54 - x55 - x58  = 0
 c12:  - x84 + x86 + x89 + x94 - x102 - x107 + x111 - x114 - x115 - x118  = 0
 c13:  - x144 + x146 + x149 + x154 - x162 - x167 + x171 - x174 - x175 - x178
        = 0
 c14:  - x204 + x206 + x209 + x214 - x222 - x227 + x231 - x234 - x235 - x238
        = 0
 c15:  - x264 + x266 + x269 + x274 - x282 - x287 + x291 - x294 - x295 - x298
        = 0
 c16:  x5 + x8 - x12 - x16 + x18 - x23 + x24 + x35 + x39 - x43 - x46 + x49
       - x50  = 1
 c17:  x65 + x68 - x72 - x76 + x78 - x83 + x84 + x95 + x99 - x103 - x106 + x109
       - x110  = 0
 c18:  x125 + x128 - x132 - x136 + x138 - x143 + x144 + x155 + x159 - x163
       - x166 + x169 - x170  = 1
 c19:  x185 + x188 - x192 - x196 + x198 - x203 + x204 + x215 + x219 - x223
       - x226 + x229 - x230  = -1
 c20:  x245 + x248 - x252 - x256 + x258 - x263 + x264 + x275 + x279 - x283
       - x286 + x289 - x290  = 0
 c21:  x9 - x25 - x30 - x35 - x37 + x40 - x44 - x45 + x46 + x52 + x53 + x57
       + x58  = 0
 c22:  x69 - x85 - x90 - x95 - x97 + x100 - x104 - x105 + x106 + x112 + x113
       + x117 + x118  = 0
 c23:  x129 - x145 - x150 - x155 - x157 + x160 - x164 - x165 + x166 + x172
       + x173 + x177 + x178  = 0
 c24:  x189 - x205 - x210 - x215 - x217 + x220 - x224 - x225 + x226 + x232
       + x233 + x237 + x238  = 0
 c25:  x249 - x265 - x270 - x275 - x277 + x280 - x284 - x285 + x286 + x292
       + x293 + x297 + x298  = 0
 c26:  - x2 + x14 - x20 + x25 + x31 + x33 - x38 - x39 + x42 + x50 - x57  = 0
 c27:  - x62 + x74 - x80 + x85 + x91 + x93 - x98 - x99 + x102 + x110 - x117
        = -1
 c28:  - x122 + x134 - x140 + x145 + x151 + x153 - x158 - x159 + x162 + x170
       - x177  = 0
 c29:  - x182 + x194 - x200 + x205 + x211 + x213 - x218 - x219 + x222 + x230
       - x237  = 0
 c30:  - x242 + x254 - x260 + x265 + x271 + x273 - x278 - x279 + x282 + x290
       - x297  = 0
 c31:  x3 + x4 - x17 + x22 - x33 + x45 - x53 - x56 - x60  = 0
 c32:  x63 + x64 - x77 + x82 - x93 + x105 - x113 - x116 - x120  = 1
 c33:  x123 + x124 - x137 + x142 - x153 + x165 - x173 - x176 - x180  = -1
 c34:  x183 + x184 - x197 + x202 - x213 + x225 - x233 - x236 - x240  = 0
 c35:  x243 + x244 - x257 + x262 - x273 + x285 - x293 - x296 - x300  = 0
 c36:  x1 - x4 - x5 + x7 + x23 - x26 - x27 - x32 + x38 + x41 - x48 + x55 - x59
        = 0
 c37:  x61 - x64 - x65 + x67 + x83 - x86 - x87 - x92 + x98 + x101 - x108 + x115
       - x119  = 0
 c38:  x121 - x124 - x125 + x127 + x143 - x146 - x147 - x152 + x158 + x161
       - x168 + x175 - x179  = 0
 c39:  x181 - x184 - x185 + x187 + x203 - x206 - x207 - x212 + x218 + x221
       - x228 + x235 - x239  = 1
 c40:  x241 - x244 - x245 + x247 + x263 - x266 - x267 - x272 + x278 + x281
       - x288 + x295 - x299  = 1
 c41:  - x8 - x11 + x13 + x15 + x16 + x21 + x27 - x28 - x31 - x34 - x41 - x52
       + x54 + x60  = 0
 c42:  - x68 - x71 + x73 + x75 + x76 + x81 + x87 - x88 - x91 - x94 - x101
       - x112 + x114 + x120  = 0
 c43:  - x128 - x131 + x133 + x135 + x136 + x141 + x147 - x148 - x151 - x154
       - x161 - x172 + x174 + x180  = 0
 c44:  - x188 - x191 + x193 + x195 + x196 + x201 + x207 - x208 - x211 - x214
       - x221 - x232 + x234 + x240  = 0
 c45:  - x248 - x251 + x253 + x255 + x256 + x261 + x267 - x268 - x271 - x274
       - x281 - x292 + x294 + x300  = -1
 c46:  x2 - x9 - x10 + x11 - x18 - x19 - x21 - x22 - x29 + x32 + x36 + x37
       + x43 + x56  = -1
 c47:  x62 - x69 - x70 + x71 - x78 - x79 - x81 - x82 - x89 + x92 + x96 + x97
       + x103 + x116  = 0
 c48:  x122 - x129 - x130 + x131 - x138 - x139 - x141 - x142 - x149 + x152
       + x156 + x157 + x163 + x176  = 0
 c49:  x182 - x189 - x190 + x191 - x198 - x199 - x201 - x202 - x209 + x212
       + x216 + x217 + x223 + x236  = 0
 c50:  x242 - x249 - x250 + x251 - x258 - x259 - x261 - x262 - x269 + x272
       + x276 + x277 + x283 + x296  = 0
 c51:  4 x1 + 4 x61 + 4 x121 + 4 x181 + 4 x241 - 2 x301 <= 0
 c52:  4 x2 + 4 x62 + 4 x122 + 4 x182 + 4 x242 - 2 x302 <= 0
 c53:  4 x3 + 4 x63 + 4 x123 + 4 x183 + 4 x243 - 2 x303 <= 0
 c54:  4 x4 + 4 x64 + 4 x124 + 4 x184 + 4 x244 - 2 x304 <= 0
 c55:  4 x5 + 4 x65 + 4 x125 + 4 x185 + 4 x245 - 2 x305 <= 0
 c56:  4 x6 + 4 x66 + 4 x126 + 4 x186 + 4 x246 - 2 x306 <= 0
 c57:  4 x7 + 4 x67 + 4 x127 + 4 x187 + 4 x247 - 2 x307 <= 0
 c58:  4 x8 + 4 x68 + 4 x128 + 4 x188 + 4 x248 - 2 x308 <= 0
 c59:  4 x9 + 4 x69 + 4 x129 + 4 x189 + 4 x249 - 2 x309 <= 0
 c60:  4 x10 + 4 x70 + 4 x130 + 4 x190 + 4 x250 - 2 x310 <= 0
 c61:  4 x11 + 4 x71 + 4 x131 + 4 x191 + 4 x251 - 2 x311 <= 0
 c62:  4 x12 + 4 x72 + 4 x132 + 4 x192 + 4 x252 - 2 x312 <= 0
 c63:  4 x13 + 4 x73 + 4 x133 + 4 x193 + 4 x253 - 2 x313 <= 0
 c64:  4 x14 + 4 x74 + 4 x134 + 4 x194 + 4 x254 - 2 x314 <= 0
 c65:  4 x15 + 4 x75 + 4 x135 + 4 x195 + 4 x255 - 2 x315 <= 0
 c66:  4 x16 + 4 x76 + 4 x136 + 4 x196 + 4 x256 - 2 x316 <= 0
 c67:  4 x17 + 4 x77 + 4 x137 + 4 x197 + 4 x257 - 2 x317 <= 0
 c68:  4 x18 + 4 x78 + 4 x138 + 4 x198 + 4 x258 - 2 x318 <= 0
 c69:  4 x19 + 4 x79 + 4 x139 + 4 x199 + 4 x259 - 2 x319 <= 0
 c70:  4 x20 + 4 x80 + 4 x140 + 4 x200 + 4 x260 - 2 x320 <= 0
 c71:  4 x21 + 4 x81 + 4 x141 + 4 x201 + 4 x261 - 2 x321 <= 0
 c72:  4 x22 + 4 x82 + 4 x142 + 4 x202 + 4 x262 - 2 x322 <= 0
 c73:  4 x23 + 4 x83 + 4 x143 + 4 x203 + 4 x263 - 2 x323 <= 0
 c74:  4 x24 + 4 x84 + 4 x144 + 4 x204 + 4 x264 - 2 x324 <= 0
 c75:  4 x25 + 4 x85 + 4 x145 + 4 x205 + 4 x265 - 2 x325 <= 0
 c76:  4 x26 + 4 x86 + 4 x146 + 4 x206 + 4 x266 - 2 x326 <= 0
 c77:  4 x27 + 4 x87 + 4 x147 + 4 x207 + 4 x267 - 2 x327 <= 0
 c78:  4 x28 + 4 x88 + 4 x148 + 4 x208 + 4 x268 - 2 x328 <= 0
 c79:  4 x29 + 4 x89 + 4 x149 + 4 x209 + 4 x269 - 2 x329 <= 0
 c80:  4 x30 + 4 x90 + 4 x150 + 4 x210 + 4 x270 - 2 x330 <= 0
 c81:  4 x31 + 4 x91 + 4 x151 + 4 x211 + 4 x271 - 2 x331 <= 0
 c82:  4 x32 + 4 x92 + 4 x152 + 4 x212 + 4 x272 - 2 x332 <= 0
 c83:  4 x33 + 4 x93 + 4 x153 + 4 x213 + 4 x273 - 2 x333 <= 0
 c84:  4 x34 + 4 x94 + 4 x154 + 4 x214 + 4 x274 - 2 x334 <= 0
 c85:  4 x35 + 4 x95 + 4 x155 + 4 x215 + 4 x275 - 2 x335 <= 0
 c86:  4 x36 + 4 x96 + 4 x156 + 4 x216 + 4 x276 - 2 x336 <= 0
 c87:  4 x37 + 4 x97 + 4 x157 + 4 x217 + 4 x277 - 2 x337 <= 0
 c88:  4 x38 + 4 x98 + 4 x158 + 4 x218 + 4 x278 - 2 x338 <= 0
 c89:  4 x39 + 4 x99 + 4 x159 + 4 x219 + 4 x279 - 2 x339 <= 0
 c90:  4 x40 + 4 x100 + 4 x160 + 4 x220 + 4 x280 - 2 x340 <= 0
 c91:  4 x41 + 4 x101 + 4 x161 + 4 x221 + 4 x281 - 2 x341 <= 0
 c92:  4 x42 + 4 x102 + 4 x162 + 4 x222 + 4 x282 - 2 x342 <= 0
 c93:  4 x43 + 4 x103 + 4 x163 + 4 x223 + 4 x283 - 2 x343 <= 0
 c94:  4 x44 + 4 x104 + 4 x164 + 4 x224 + 4 x284 - 2 x344 <= 0
 c95:  4 x45 + 4 x105 + 4 x165 + 4 x225 + 4 x285 - 2 x345 <= 0
 c96:  4 x46 + 4 x106 + 4 x166 + 4 x226 + 4 x286 - 2 x346 <= 0
 c97:  4 x47 + 4 x107 + 4 x167 + 4 x227 + 4 x287 - 2 x347 <= 0
 c98:  4 x48 + 4 x108 + 4 x168 + 4 x228 + 4 x288 - 2 x348 <= 0
 c99:  4 x49 + 4 x109 + 4 x169 + 4 x229 + 4 x289 - 2 x349 <= 0
 c100: 4 x50 + 4 x110 + 4 x170 + 4 x230 + 4 x290 - 2 x350 <= 0
 c101: 4 x51 + 4 x111 + 4 x171 + 4 x231 + 4 x291 - 2 x351 <= 0
 c102: 4 x52 + 4 x112 + 4 x172 + 4 x232 + 4 x292 - 2 x352 <= 0
 c103: 4 x53 + 4 x113 + 4 x173 + 4 x233 + 4 x293 - 2 x353 <= 0
 c104: 4 x54 + 4 x114 + 4 x174 + 4 x234 + 4 x294 - 2 x354 <= 0
 c105: 4 x55 + 4 x115 + 4 x175 + 4 x235 + 4 x295 - 2 x355 <= 0
 c106: 4 x56 + 4 x116 + 4 x176 + 4 x236 + 4 x296 - 2 x356 <= 0
 c107: 4 x57 + 4 x117 + 4 x177 + 4 x237 + 4 x297 - 2 x357 <= 0
 c108: 4 x58 + 4 x118 + 4 x178 + 4 x238 + 4 x298 - 2 x358 <= 0
 c109: 4 x59 + 4 x119 + 4 x179 + 4 x239 + 4 x299 - 2 x359 <= 0
 c110: 4 x60 + 4 x120 + 4 x180 + 4 x240 + 4 x300 - 2 x360 <= 0
Bounds
 0 <= x1 <= 1
 0 <= x2 <= 1
 0 <= x3 <= 1
 0 <= x4 <= 1
 0 <= x5 <= 1
 0 <= x6 <= 1
 0 <= x7 <= 1
 0 <= x8 <= 1
 0 <= x9 <= 1
 0 <= x10 <= 1
 0 <= x11 <= 1
 0 <= x12 <= 1
 0 <= x13 <= 1
 0 <= x14 <= 1
 0 <= x15 <= 1
 0 <= x16 <= 1
 0 <= x17 <= 1
 0 <= x18 <= 1
 0 <= x19 <= 1
 0 <= x20 <= 1
 0 <= x21 <= 1
 0 <= x22 <= 1
 0 <= x23 <= 1
 0 <= x24 <= 1
 0 <= x25 <= 1
 0 <= x26 <= 1
 0 <= x27 <= 1
 0 <= x28 <= 1
 0 <= x29 <= 1
 0 <= x30 <= 1
 0 <= x31 <= 1
 0 <= x32 <= 1
 0 <= x33 <= 1
 0 <= x34 <= 1
 0 <= x35 <= 1
 0 <= x36 <= 1
 0 <= x37 <= 1
 0 <= x38 <= 1
 0 <= x39 <= 1
 0 <= x40 <= 1
 0 <= x41 <= 1
 0 <= x42 <= 1
 0 <= x43 <= 1
 0 <= x44 <= 1
 0 <= x45 <= 1
 0 <= x46 <= 1
 0 <= x47 <= 1
 0 <= x48 <= 1
 0 <= x49 <= 1
 0 <= x50 <= 1
 0 <= x51 <= 1
 0 <= x52 <= 1
 0 <= x53 <= 1
 0 <= x54 <= 1
 0 <= x55 <= 1
 0 <= x56 <= 1
 0 <= x57 <= 1
 0 <= x58 <= 1
 0 <= x59 <= 1
 0 <= x60 <= 1
 0 <= x61 <= 1
 0 <= x62 <= 1
 0 <= x63 <= 1
 0 <= x64 <= 1
 0 <= x65 <= 1
 0 <= x66 <= 1
 0 <= x67 <= 1
 0 <= x68 <= 1
 0 <= x69 <= 1
 0 <= x70 <= 1
 0 <= x71 <= 1
 0 <= x72 <= 1
 0 <= x73 <= 1
 0 <= x74 <= 1
 0 <= x75 <= 1
 0 <= x76 <= 1
 0 <= x77 <= 1
 0 <= x78 <= 1
 0 <= x79 <= 1
 0 <= x80 <= 1
 0 <= x81 <= 1
 0 <= x82 <= 1
 0 <= x83 <= 1
 0 <= x84 <= 1
 0 <= x85 <= 1
 0 <= x86 <= 1
 0 <= x87 <= 1
 0 <= x88 <= 1
 0 <= x89 <= 1
 0 <= x90 <= 1
 0 <= x91 <= 1
 0 <= x92 <= 1
 0 <= x93 <= 1
 0 <= x94 <= 1
 0 <= x95 <= 1
 0 <= x96 <= 1
 0 <= x97 <= 1
 0 <= x98 <= 1
 0 <= x99 <= 1
 0 <= x100 <= 1
 0 <= x101 <= 1
 0 <= x102 <= 1
 0 <= x103 <= 1
 0 <= x104 <= 1
 0 <= x105 <= 1
 0 <= x106 <= 1
 0 <= x107 <= 1
 0 <= x108 <= 1
 0 <= x109 <= 1
 0 <= x110 <= 1
 0 <= x111 <= 1
 0 <= x112 <= 1
 0 <= x113 <= 1
 0 <= x114 <= 1
 0 <= x115 <= 1
 0 <= x116 <= 1
 0 <= x117 <= 1
 0 <= x118 <= 1
 0 <= x119 <= 1
 0 <= x120 <= 1
 0 <= x121 <= 1
 0 <= x122 <= 1
 0 <= x123 <= 1
 0 <= x124 <= 1
 0 <= x125 <= 1
 0 <= x126 <= 1
 0 <= x127 <= 1
 0 <= x128 <= 1
 0 <= x129 <= 1
 0 <= x130 <= 1
 0 <= x131 <= 1
 0 <= x132 <= 1
 0 <= x133 <= 1
 0 <= x134 <= 1
 0 <= x135 <= 1
 0 <= x136 <= 1
 0 <= x137 <= 1
 0 <= x138 <= 1
 0 <= x139 <= 1
 0 <= x140 <= 1
 0 <= x141 <= 1
 0 <= x142 <= 1
 0 <= x143 <= 1
 0 <= x144 <= 1
 0 <= x145 <= 1
 0 <= x146 <= 1
 0 <= x147 <= 1
 0 <= x148 <= 1
 0 <= x149 <= 1
 0 <= x150 <= 1
 0 <= x151 <= 1
 0 <= x152 <= 1
 0 <= x153 <= 1
 0 <= x154 <= 1
 0 <= x155 <= 1
 0 <= x156 <= 1
 0 <= x157 <= 1
 0 <= x158 <= 1
 0 <= x159 <= 1
 0 <= x160 <= 1
 0 <= x161 <= 1
 0 <= x162 <= 1
 0 <= x163 <= 1
 0 <= x164 <= 1
 0 <= x165 <= 1
 0 <= x166 <= 1
 0 <= x167 <= 1
 0 <= x168 <= 1
 0 <= x169 <= 1
 0 <= x170 <= 1
 0 <= x171 <= 1
 0 <= x172 <= 1
 0 <= x173 <= 1
 0 <= x174 <= 1
 0 <= x175 <= 1
 0 <= x176 <= 1
 0 <= x177 <= 1
 0 <= x178 <= 1
 0 <= x179 <= 1
 0 <= x180 <= 1
 0 <= x181 <= 1
 0 <= x182 <= 1
 0 <= x183 <= 1
 0 <= x184 <= 1
 0 <= x185 <= 1
 0 <= x186 <= 1
 0 <= x187 <= 1
 0 <= x188 <= 1
 0 <= x189 <= 1
 0 <= x190 <= 1
 0 <= x191 <= 1
 0 <= x192 <= 1
 0 <= x193 <= 1
 0 <= x194 <= 1
 0 <= x195 <= 1
 0 <= x196 <= 1
 0 <= x197 <= 1
 0 <= x198 <= 1
 0 <= x199 <= 1
 0 <= x200 <= 1
 0 <= x201 <= 1
 0 <= x202 <= 1
 0 <= x203 <= 1
 0 <= x204 <= 1
 0 <= x205 <= 1
 0 <= x206 <= 1
 0 <= x207 <= 1
 0 <= x208 <= 1
 0 <= x209 <= 1
 0 <= x210 <= 1
 0 <= x211 <= 1
 0 <= x212 <= 1
 0 <= x213 <= 1
 0 <= x214 <= 1
 0 <= x215 <= 1
 0 <= x216 <= 1
 0 <= x217 <= 1
 0 <= x218 <= 1
 0 <= x219 <= 1
 0 <= x220 <= 1
 0 <= x221 <= 1
 0 <= x222 <= 1
 0 <= x223 <= 1
 0 <= x224 <= 1
 0 <= x225 <= 1
 0 <= x226 <= 1
 0 <= x227 <= 1
 0 <= x228 <= 1
 0 <= x229 <= 1
 0 <= x230 <= 1
 0 <= x231 <= 1
 0 <= x232 <= 1
 0 <= x233 <= 1
 0 <= x234 <= 1
 0 <= x235 <= 1
 0 <= x236 <= 1
 0 <= x237 <= 1
 0 <= x238 <= 1
 0 <= x239 <= 1
 0 <= x240 <= 1
 0 <= x241 <= 1
 0 <= x242 <= 1
 0 <= x243 <= 1
 0 <= x244 <= 1
 0 <= x245 <= 1
 0 <= x246 <= 1
 0 <= x247 <= 1
 0 <= x248 <= 1
 0 <= x249 <= 1
 0 <= x250 <= 1
 0 <= x251 <= 1
 0 <= x252 <= 1
 0 <= x253 <= 1
 0 <= x254 <= 1
 0 <= x255 <= 1
 0 <= x256 <= 1
 0 <= x257 <= 1
 0 <= x258 <= 1
 0 <= x259 <= 1
 0 <= x260 <= 1
 0 <= x261 <= 1
 0 <= x262 <= 1
 0 <= x263 <= 1
 0 <= x264 <= 1
 0 <= x265 <= 1
 0 <= x266 <= 1
 0 <= x267 <= 1
 0 <= x268 <= 1
 0 <= x269 <= 1
 0 <= x270 <= 1
 0 <= x271 <= 1
 0 <= x272 <= 1
 0 <= x273 <= 1
 0 <= x274 <= 1
 0 <= x275 <= 1
 0 <= x276 <= 1
 0 <= x277 <= 1
 0 <= x278 <= 1
 0 <= x279 <= 1
 0 <= x280 <= 1
 0 <= x281 <= 1
 0 <= x282 <= 1
 0 <= x283 <= 1
 0 <= x284 <= 1
 0 <= x285 <= 1
 0 <= x286 <= 1
 0 <= x287 <= 1
 0 <= x288 <= 1
 0 <= x289 <= 1
 0 <= x290 <= 1
 0 <= x291 <= 1
 0 <= x292 <= 1
 0 <= x293 <= 1
 0 <= x294 <= 1
 0 <= x295 <= 1
 0 <= x296 <= 1
 0 <= x297 <= 1
 0 <= x298 <= 1
 0 <= x299 <= 1
 0 <= x300 <= 1
 0 <= x301 <= 1
 0 <= x302 <= 1
 0 <= x303 <= 1
 0 <= x304 <= 1
 0 <= x305 <= 1
 0 <= x306 <= 1
 0 <= x307 <= 1
 0 <= x308 <= 1
 0 <= x309 <= 1
 0 <= x310 <= 1
 0 <= x311 <= 1
 0 <= x312 <= 1
 0 <= x313 <= 1
 0 <= x314 <= 1
 0 <= x315 <= 1
 0 <= x316 <= 1
 0 <= x317 <= 1
 0 <= x318 <= 1
 0 <= x319 <= 1
 0 <= x320 <= 1
 0 <= x321 <= 1
 0 <= x322 <= 1
 0 <= x323 <= 1
 0 <= x324 <= 1
 0 <= x325 <= 1
 0 <= x326 <= 1
 0 <= x327 <= 1
 0 <= x328 <= 1
 0 <= x329 <= 1
 0 <= x330 <= 1
 0 <= x331 <= 1
 0 <= x332 <= 1
 0 <= x333 <= 1
 0 <= x334 <= 1
 0 <= x335 <= 1
 0 <= x336 <= 1
 0 <= x337 <= 1
 0 <= x338 <= 1
 0 <= x339 <= 1
 0 <= x340 <= 1
 0 <= x341 <= 1
 0 <= x342 <= 1
 0 <= x343 <= 1
 0 <= x344 <= 1
 0 <= x345 <= 1
 0 <= x346 <= 1
 0 <= x347 <= 1
 0 <= x348 <= 1
 0 <= x349 <= 1
 0 <= x350 <= 1
 0 <= x351 <= 1
 0 <= x352 <= 1
 0 <= x353 <= 1
 0 <= x354 <= 1
 0 <= x355 <= 1
 0 <= x356 <= 1
 0 <= x357 <= 1
 0 <= x358 <= 1
 0 <= x359 <= 1
 0 <= x360 <= 1
Binaries
 x301  x302  x303  x304  x305  x306  x307  x308  x309  x310  x311  x312  x313 
 x314  x315  x316  x317  x318  x319  x320  x321  x322  x323  x324  x325  x326 
 x327  x328  x329  x330  x331  x332  x333  x334  x335  x336  x337  x338  x339 
 x340  x341  x342  x343  x344  x345  x346  x347  x348  x349  x350  x351  x352 
 x353  x354  x355  x356  x357  x358  x359  x360 
End
